c instance by G2
c solution = 01010000000111010
c Known solution cost is 672 
p cnf 17 30
w 94 39 35 22 23 26 27 45 2 13 54 60 48 31 35 50 68
7 -14 4 0
-17 7 10 0
3 -7 -16 0
16 3 -14 0
-10 7 17 0
-13 -7 15 0
4 -10 2 0
11 -13 12 0
-10 7 2 0
-4 -14 -1 0
-6 3 17 0
2 8 1 0
8 -4 -17 0
-11 -14 8 0
17 -9 7 0
5 12 15 0
1 17 13 0
-2 -12 -5 0
14 1 10 0
-13 7 12 0
15 -3 1 0
-5 -3 4 0
11 -13 2 0
13 -16 9 0
-8 10 -4 0
16 3 9 0
14 6 17 0
5 16 -13 0
-11 5 10 0
-12 -15 -13 0
